(set-logic QF_LIA)
(declare-fun n_servers () Int)
(declare-fun srv0vm0 () Int)
(declare-fun srv0vm1 () Int)
(declare-fun srv0vm2 () Int)
(declare-fun srv0vm3 () Int)
(declare-fun srv0vm4 () Int)
(declare-fun srv0vm5 () Int)
(declare-fun srv0vm6 () Int)
(declare-fun srv0vm7 () Int)
(declare-fun srv0vm8 () Int)
(declare-fun srv0vm9 () Int)
(declare-fun srv0vm10 () Int)
(declare-fun srv1vm0 () Int)
(declare-fun srv1vm1 () Int)
(declare-fun srv1vm2 () Int)
(declare-fun srv1vm3 () Int)
(declare-fun srv1vm4 () Int)
(declare-fun srv1vm5 () Int)
(declare-fun srv1vm6 () Int)
(declare-fun srv1vm7 () Int)
(declare-fun srv1vm8 () Int)
(declare-fun srv1vm9 () Int)
(declare-fun srv1vm10 () Int)
(declare-fun srv2vm0 () Int)
(declare-fun srv2vm1 () Int)
(declare-fun srv2vm2 () Int)
(declare-fun srv2vm3 () Int)
(declare-fun srv2vm4 () Int)
(declare-fun srv2vm5 () Int)
(declare-fun srv2vm6 () Int)
(declare-fun srv2vm7 () Int)
(declare-fun srv2vm8 () Int)
(declare-fun srv2vm9 () Int)
(declare-fun srv2vm10 () Int)
(declare-fun srv3vm0 () Int)
(declare-fun srv3vm1 () Int)
(declare-fun srv3vm2 () Int)
(declare-fun srv3vm3 () Int)
(declare-fun srv3vm4 () Int)
(declare-fun srv3vm5 () Int)
(declare-fun srv3vm6 () Int)
(declare-fun srv3vm7 () Int)
(declare-fun srv3vm8 () Int)
(declare-fun srv3vm9 () Int)
(declare-fun srv3vm10 () Int)
(declare-fun srv4vm0 () Int)
(declare-fun srv4vm1 () Int)
(declare-fun srv4vm2 () Int)
(declare-fun srv4vm3 () Int)
(declare-fun srv4vm4 () Int)
(declare-fun srv4vm5 () Int)
(declare-fun srv4vm6 () Int)
(declare-fun srv4vm7 () Int)
(declare-fun srv4vm8 () Int)
(declare-fun srv4vm9 () Int)
(declare-fun srv4vm10 () Int)
(declare-fun srv5vm0 () Int)
(declare-fun srv5vm1 () Int)
(declare-fun srv5vm2 () Int)
(declare-fun srv5vm3 () Int)
(declare-fun srv5vm4 () Int)
(declare-fun srv5vm5 () Int)
(declare-fun srv5vm6 () Int)
(declare-fun srv5vm7 () Int)
(declare-fun srv5vm8 () Int)
(declare-fun srv5vm9 () Int)
(declare-fun srv5vm10 () Int)
(declare-fun srv6vm0 () Int)
(declare-fun srv6vm1 () Int)
(declare-fun srv6vm2 () Int)
(declare-fun srv6vm3 () Int)
(declare-fun srv6vm4 () Int)
(declare-fun srv6vm5 () Int)
(declare-fun srv6vm6 () Int)
(declare-fun srv6vm7 () Int)
(declare-fun srv6vm8 () Int)
(declare-fun srv6vm9 () Int)
(declare-fun srv6vm10 () Int)
(declare-fun srv7vm0 () Int)
(declare-fun srv7vm1 () Int)
(declare-fun srv7vm2 () Int)
(declare-fun srv7vm3 () Int)
(declare-fun srv7vm4 () Int)
(declare-fun srv7vm5 () Int)
(declare-fun srv7vm6 () Int)
(declare-fun srv7vm7 () Int)
(declare-fun srv7vm8 () Int)
(declare-fun srv7vm9 () Int)
(declare-fun srv7vm10 () Int)
(declare-fun srv8vm0 () Int)
(declare-fun srv8vm1 () Int)
(declare-fun srv8vm2 () Int)
(declare-fun srv8vm3 () Int)
(declare-fun srv8vm4 () Int)
(declare-fun srv8vm5 () Int)
(declare-fun srv8vm6 () Int)
(declare-fun srv8vm7 () Int)
(declare-fun srv8vm8 () Int)
(declare-fun srv8vm9 () Int)
(declare-fun srv8vm10 () Int)
(declare-fun srv9vm0 () Int)
(declare-fun srv9vm1 () Int)
(declare-fun srv9vm2 () Int)
(declare-fun srv9vm3 () Int)
(declare-fun srv9vm4 () Int)
(declare-fun srv9vm5 () Int)
(declare-fun srv9vm6 () Int)
(declare-fun srv9vm7 () Int)
(declare-fun srv9vm8 () Int)
(declare-fun srv9vm9 () Int)
(declare-fun srv9vm10 () Int)
(declare-fun srv10vm0 () Int)
(declare-fun srv10vm1 () Int)
(declare-fun srv10vm2 () Int)
(declare-fun srv10vm3 () Int)
(declare-fun srv10vm4 () Int)
(declare-fun srv10vm5 () Int)
(declare-fun srv10vm6 () Int)
(declare-fun srv10vm7 () Int)
(declare-fun srv10vm8 () Int)
(declare-fun srv10vm9 () Int)
(declare-fun srv10vm10 () Int)
(declare-fun use_server0 () Int)
(declare-fun use_server1 () Int)
(declare-fun use_server2 () Int)
(declare-fun use_server3 () Int)
(declare-fun use_server4 () Int)
(declare-fun use_server5 () Int)
(declare-fun use_server6 () Int)
(declare-fun use_server7 () Int)
(declare-fun use_server8 () Int)
(declare-fun use_server9 () Int)
(declare-fun use_server10 () Int)
(assert (let ((.def_0 (+ use_server0 use_server1 use_server2 use_server3 use_server4 use_server5 use_server6 use_server7 use_server8 use_server9 use_server10))) (let ((.def_1 (= .def_0 n_servers))) (let ((.def_2 (= use_server10 0))) (let ((.def_3 (= srv10vm10 1))) (let ((.def_4 (= srv10vm9 1))) (let ((.def_5 (= srv10vm8 1))) (let ((.def_6 (= srv10vm7 1))) (let ((.def_7 (= srv10vm6 1))) (let ((.def_8 (= srv10vm5 1))) (let ((.def_9 (= srv10vm4 1))) (let ((.def_10 (= srv10vm3 1))) (let ((.def_11 (= srv10vm2 1))) (let ((.def_12 (= srv10vm1 1))) (let ((.def_13 (= srv10vm0 1))) (let ((.def_14 (or .def_13 .def_12 .def_11 .def_10 .def_9 .def_8 .def_7 .def_6 .def_5 .def_4 .def_3))) (let ((.def_15 (not .def_14))) (let ((.def_16 (=> .def_15 .def_2))) (let ((.def_17 (= use_server10 1))) (let ((.def_18 (=> .def_14 .def_17))) (let ((.def_19 (= use_server9 0))) (let ((.def_20 (= srv9vm10 1))) (let ((.def_21 (= srv9vm9 1))) (let ((.def_22 (= srv9vm8 1))) (let ((.def_23 (= srv9vm7 1))) (let ((.def_24 (= srv9vm6 1))) (let ((.def_25 (= srv9vm5 1))) (let ((.def_26 (= srv9vm4 1))) (let ((.def_27 (= srv9vm3 1))) (let ((.def_28 (= srv9vm2 1))) (let ((.def_29 (= srv9vm1 1))) (let ((.def_30 (= srv9vm0 1))) (let ((.def_31 (or .def_30 .def_29 .def_28 .def_27 .def_26 .def_25 .def_24 .def_23 .def_22 .def_21 .def_20))) (let ((.def_32 (not .def_31))) (let ((.def_33 (=> .def_32 .def_19))) (let ((.def_34 (= use_server9 1))) (let ((.def_35 (=> .def_31 .def_34))) (let ((.def_36 (= use_server8 0))) (let ((.def_37 (= srv8vm10 1))) (let ((.def_38 (= srv8vm9 1))) (let ((.def_39 (= srv8vm8 1))) (let ((.def_40 (= srv8vm7 1))) (let ((.def_41 (= srv8vm6 1))) (let ((.def_42 (= srv8vm5 1))) (let ((.def_43 (= srv8vm4 1))) (let ((.def_44 (= srv8vm3 1))) (let ((.def_45 (= srv8vm2 1))) (let ((.def_46 (= srv8vm1 1))) (let ((.def_47 (= srv8vm0 1))) (let ((.def_48 (or .def_47 .def_46 .def_45 .def_44 .def_43 .def_42 .def_41 .def_40 .def_39 .def_38 .def_37))) (let ((.def_49 (not .def_48))) (let ((.def_50 (=> .def_49 .def_36))) (let ((.def_51 (= use_server8 1))) (let ((.def_52 (=> .def_48 .def_51))) (let ((.def_53 (= use_server7 0))) (let ((.def_54 (= srv7vm10 1))) (let ((.def_55 (= srv7vm9 1))) (let ((.def_56 (= srv7vm8 1))) (let ((.def_57 (= srv7vm7 1))) (let ((.def_58 (= srv7vm6 1))) (let ((.def_59 (= srv7vm5 1))) (let ((.def_60 (= srv7vm4 1))) (let ((.def_61 (= srv7vm3 1))) (let ((.def_62 (= srv7vm2 1))) (let ((.def_63 (= srv7vm1 1))) (let ((.def_64 (= srv7vm0 1))) (let ((.def_65 (or .def_64 .def_63 .def_62 .def_61 .def_60 .def_59 .def_58 .def_57 .def_56 .def_55 .def_54))) (let ((.def_66 (not .def_65))) (let ((.def_67 (=> .def_66 .def_53))) (let ((.def_68 (= use_server7 1))) (let ((.def_69 (=> .def_65 .def_68))) (let ((.def_70 (= use_server6 0))) (let ((.def_71 (= srv6vm10 1))) (let ((.def_72 (= srv6vm9 1))) (let ((.def_73 (= srv6vm8 1))) (let ((.def_74 (= srv6vm7 1))) (let ((.def_75 (= srv6vm6 1))) (let ((.def_76 (= srv6vm5 1))) (let ((.def_77 (= srv6vm4 1))) (let ((.def_78 (= srv6vm3 1))) (let ((.def_79 (= srv6vm2 1))) (let ((.def_80 (= srv6vm1 1))) (let ((.def_81 (= srv6vm0 1))) (let ((.def_82 (or .def_81 .def_80 .def_79 .def_78 .def_77 .def_76 .def_75 .def_74 .def_73 .def_72 .def_71))) (let ((.def_83 (not .def_82))) (let ((.def_84 (=> .def_83 .def_70))) (let ((.def_85 (= use_server6 1))) (let ((.def_86 (=> .def_82 .def_85))) (let ((.def_87 (= use_server5 0))) (let ((.def_88 (= srv5vm10 1))) (let ((.def_89 (= srv5vm9 1))) (let ((.def_90 (= srv5vm8 1))) (let ((.def_91 (= srv5vm7 1))) (let ((.def_92 (= srv5vm6 1))) (let ((.def_93 (= srv5vm5 1))) (let ((.def_94 (= srv5vm4 1))) (let ((.def_95 (= srv5vm3 1))) (let ((.def_96 (= srv5vm2 1))) (let ((.def_97 (= srv5vm1 1))) (let ((.def_98 (= srv5vm0 1))) (let ((.def_99 (or .def_98 .def_97 .def_96 .def_95 .def_94 .def_93 .def_92 .def_91 .def_90 .def_89 .def_88))) (let ((.def_100 (not .def_99))) (let ((.def_101 (=> .def_100 .def_87))) (let ((.def_102 (= use_server5 1))) (let ((.def_103 (=> .def_99 .def_102))) (let ((.def_104 (= use_server4 0))) (let ((.def_105 (= srv4vm10 1))) (let ((.def_106 (= srv4vm9 1))) (let ((.def_107 (= srv4vm8 1))) (let ((.def_108 (= srv4vm7 1))) (let ((.def_109 (= srv4vm6 1))) (let ((.def_110 (= srv4vm5 1))) (let ((.def_111 (= srv4vm4 1))) (let ((.def_112 (= srv4vm3 1))) (let ((.def_113 (= srv4vm2 1))) (let ((.def_114 (= srv4vm1 1))) (let ((.def_115 (= srv4vm0 1))) (let ((.def_116 (or .def_115 .def_114 .def_113 .def_112 .def_111 .def_110 .def_109 .def_108 .def_107 .def_106 .def_105))) (let ((.def_117 (not .def_116))) (let ((.def_118 (=> .def_117 .def_104))) (let ((.def_119 (= use_server4 1))) (let ((.def_120 (=> .def_116 .def_119))) (let ((.def_121 (= use_server3 0))) (let ((.def_122 (= srv3vm10 1))) (let ((.def_123 (= srv3vm9 1))) (let ((.def_124 (= srv3vm8 1))) (let ((.def_125 (= srv3vm7 1))) (let ((.def_126 (= srv3vm6 1))) (let ((.def_127 (= srv3vm5 1))) (let ((.def_128 (= srv3vm4 1))) (let ((.def_129 (= srv3vm3 1))) (let ((.def_130 (= srv3vm2 1))) (let ((.def_131 (= srv3vm1 1))) (let ((.def_132 (= srv3vm0 1))) (let ((.def_133 (or .def_132 .def_131 .def_130 .def_129 .def_128 .def_127 .def_126 .def_125 .def_124 .def_123 .def_122))) (let ((.def_134 (not .def_133))) (let ((.def_135 (=> .def_134 .def_121))) (let ((.def_136 (= use_server3 1))) (let ((.def_137 (=> .def_133 .def_136))) (let ((.def_138 (= use_server2 0))) (let ((.def_139 (= srv2vm10 1))) (let ((.def_140 (= srv2vm9 1))) (let ((.def_141 (= srv2vm8 1))) (let ((.def_142 (= srv2vm7 1))) (let ((.def_143 (= srv2vm6 1))) (let ((.def_144 (= srv2vm5 1))) (let ((.def_145 (= srv2vm4 1))) (let ((.def_146 (= srv2vm3 1))) (let ((.def_147 (= srv2vm2 1))) (let ((.def_148 (= srv2vm1 1))) (let ((.def_149 (= srv2vm0 1))) (let ((.def_150 (or .def_149 .def_148 .def_147 .def_146 .def_145 .def_144 .def_143 .def_142 .def_141 .def_140 .def_139))) (let ((.def_151 (not .def_150))) (let ((.def_152 (=> .def_151 .def_138))) (let ((.def_153 (= use_server2 1))) (let ((.def_154 (=> .def_150 .def_153))) (let ((.def_155 (= use_server1 0))) (let ((.def_156 (= srv1vm10 1))) (let ((.def_157 (= srv1vm9 1))) (let ((.def_158 (= srv1vm8 1))) (let ((.def_159 (= srv1vm7 1))) (let ((.def_160 (= srv1vm6 1))) (let ((.def_161 (= srv1vm5 1))) (let ((.def_162 (= srv1vm4 1))) (let ((.def_163 (= srv1vm3 1))) (let ((.def_164 (= srv1vm2 1))) (let ((.def_165 (= srv1vm1 1))) (let ((.def_166 (= srv1vm0 1))) (let ((.def_167 (or .def_166 .def_165 .def_164 .def_163 .def_162 .def_161 .def_160 .def_159 .def_158 .def_157 .def_156))) (let ((.def_168 (not .def_167))) (let ((.def_169 (=> .def_168 .def_155))) (let ((.def_170 (= use_server1 1))) (let ((.def_171 (=> .def_167 .def_170))) (let ((.def_172 (= use_server0 0))) (let ((.def_173 (= srv0vm10 1))) (let ((.def_174 (= srv0vm9 1))) (let ((.def_175 (= srv0vm8 1))) (let ((.def_176 (= srv0vm7 1))) (let ((.def_177 (= srv0vm6 1))) (let ((.def_178 (= srv0vm5 1))) (let ((.def_179 (= srv0vm4 1))) (let ((.def_180 (= srv0vm3 1))) (let ((.def_181 (= srv0vm2 1))) (let ((.def_182 (= srv0vm1 1))) (let ((.def_183 (= srv0vm0 1))) (let ((.def_184 (or .def_183 .def_182 .def_181 .def_180 .def_179 .def_178 .def_177 .def_176 .def_175 .def_174 .def_173))) (let ((.def_185 (not .def_184))) (let ((.def_186 (=> .def_185 .def_172))) (let ((.def_187 (= use_server0 1))) (let ((.def_188 (=> .def_184 .def_187))) (let ((.def_189 (* srv10vm10 1300))) (let ((.def_190 (* srv10vm9 3700))) (let ((.def_191 (* srv10vm8 450))) (let ((.def_192 (* srv10vm7 2500))) (let ((.def_193 (* srv10vm6 800))) (let ((.def_194 (* srv10vm5 4000))) (let ((.def_195 (* srv10vm4 7000))) (let ((.def_196 (* srv10vm3 800))) (let ((.def_197 (* srv10vm2 710))) (let ((.def_198 (* srv10vm1 900))) (let ((.def_199 (* srv10vm0 100))) (let ((.def_200 (+ .def_199 .def_198 .def_197 .def_196 .def_195 .def_194 .def_193 .def_192 .def_191 .def_190 .def_189))) (let ((.def_201 (<= .def_200 1000))) (let ((.def_202 (* srv10vm10 12))) (let ((.def_203 (* srv10vm9 16))) (let ((.def_204 (* srv10vm8 16))) (let ((.def_205 (* srv10vm7 4))) (let ((.def_206 (* srv10vm6 2))) (let ((.def_207 (* srv10vm5 8))) (let ((.def_208 (* srv10vm4 4))) (let ((.def_209 (* srv10vm3 2))) (let ((.def_210 (* srv10vm2 4))) (let ((.def_211 (* srv10vm1 16))) (let ((.def_212 (* srv10vm0 1))) (let ((.def_213 (+ .def_212 .def_211 .def_210 .def_209 .def_208 .def_207 .def_206 .def_205 .def_204 .def_203 .def_202))) (let ((.def_214 (<= .def_213 8))) (let ((.def_215 (* srv9vm10 1300))) (let ((.def_216 (* srv9vm9 3700))) (let ((.def_217 (* srv9vm8 450))) (let ((.def_218 (* srv9vm7 2500))) (let ((.def_219 (* srv9vm6 800))) (let ((.def_220 (* srv9vm5 4000))) (let ((.def_221 (* srv9vm4 7000))) (let ((.def_222 (* srv9vm3 800))) (let ((.def_223 (* srv9vm2 710))) (let ((.def_224 (* srv9vm1 900))) (let ((.def_225 (* srv9vm0 100))) (let ((.def_226 (+ .def_225 .def_224 .def_223 .def_222 .def_221 .def_220 .def_219 .def_218 .def_217 .def_216 .def_215))) (let ((.def_227 (<= .def_226 10000))) (let ((.def_228 (* srv9vm10 12))) (let ((.def_229 (* srv9vm9 16))) (let ((.def_230 (* srv9vm8 16))) (let ((.def_231 (* srv9vm7 4))) (let ((.def_232 (* srv9vm6 2))) (let ((.def_233 (* srv9vm5 8))) (let ((.def_234 (* srv9vm4 4))) (let ((.def_235 (* srv9vm3 2))) (let ((.def_236 (* srv9vm2 4))) (let ((.def_237 (* srv9vm1 16))) (let ((.def_238 (* srv9vm0 1))) (let ((.def_239 (+ .def_238 .def_237 .def_236 .def_235 .def_234 .def_233 .def_232 .def_231 .def_230 .def_229 .def_228))) (let ((.def_240 (<= .def_239 16))) (let ((.def_241 (* srv8vm10 1300))) (let ((.def_242 (* srv8vm9 3700))) (let ((.def_243 (* srv8vm8 450))) (let ((.def_244 (* srv8vm7 2500))) (let ((.def_245 (* srv8vm6 800))) (let ((.def_246 (* srv8vm5 4000))) (let ((.def_247 (* srv8vm4 7000))) (let ((.def_248 (* srv8vm3 800))) (let ((.def_249 (* srv8vm2 710))) (let ((.def_250 (* srv8vm1 900))) (let ((.def_251 (* srv8vm0 100))) (let ((.def_252 (+ .def_251 .def_250 .def_249 .def_248 .def_247 .def_246 .def_245 .def_244 .def_243 .def_242 .def_241))) (let ((.def_253 (<= .def_252 1000))) (let ((.def_254 (* srv8vm10 12))) (let ((.def_255 (* srv8vm9 16))) (let ((.def_256 (* srv8vm8 16))) (let ((.def_257 (* srv8vm7 4))) (let ((.def_258 (* srv8vm6 2))) (let ((.def_259 (* srv8vm5 8))) (let ((.def_260 (* srv8vm4 4))) (let ((.def_261 (* srv8vm3 2))) (let ((.def_262 (* srv8vm2 4))) (let ((.def_263 (* srv8vm1 16))) (let ((.def_264 (* srv8vm0 1))) (let ((.def_265 (+ .def_264 .def_263 .def_262 .def_261 .def_260 .def_259 .def_258 .def_257 .def_256 .def_255 .def_254))) (let ((.def_266 (<= .def_265 8))) (let ((.def_267 (* srv7vm10 1300))) (let ((.def_268 (* srv7vm9 3700))) (let ((.def_269 (* srv7vm8 450))) (let ((.def_270 (* srv7vm7 2500))) (let ((.def_271 (* srv7vm6 800))) (let ((.def_272 (* srv7vm5 4000))) (let ((.def_273 (* srv7vm4 7000))) (let ((.def_274 (* srv7vm3 800))) (let ((.def_275 (* srv7vm2 710))) (let ((.def_276 (* srv7vm1 900))) (let ((.def_277 (* srv7vm0 100))) (let ((.def_278 (+ .def_277 .def_276 .def_275 .def_274 .def_273 .def_272 .def_271 .def_270 .def_269 .def_268 .def_267))) (let ((.def_279 (<= .def_278 2000))) (let ((.def_280 (* srv7vm10 12))) (let ((.def_281 (* srv7vm9 16))) (let ((.def_282 (* srv7vm8 16))) (let ((.def_283 (* srv7vm7 4))) (let ((.def_284 (* srv7vm6 2))) (let ((.def_285 (* srv7vm5 8))) (let ((.def_286 (* srv7vm4 4))) (let ((.def_287 (* srv7vm3 2))) (let ((.def_288 (* srv7vm2 4))) (let ((.def_289 (* srv7vm1 16))) (let ((.def_290 (* srv7vm0 1))) (let ((.def_291 (+ .def_290 .def_289 .def_288 .def_287 .def_286 .def_285 .def_284 .def_283 .def_282 .def_281 .def_280))) (let ((.def_292 (<= .def_291 32))) (let ((.def_293 (* srv6vm10 1300))) (let ((.def_294 (* srv6vm9 3700))) (let ((.def_295 (* srv6vm8 450))) (let ((.def_296 (* srv6vm7 2500))) (let ((.def_297 (* srv6vm6 800))) (let ((.def_298 (* srv6vm5 4000))) (let ((.def_299 (* srv6vm4 7000))) (let ((.def_300 (* srv6vm3 800))) (let ((.def_301 (* srv6vm2 710))) (let ((.def_302 (* srv6vm1 900))) (let ((.def_303 (* srv6vm0 100))) (let ((.def_304 (+ .def_303 .def_302 .def_301 .def_300 .def_299 .def_298 .def_297 .def_296 .def_295 .def_294 .def_293))) (let ((.def_305 (<= .def_304 4000))) (let ((.def_306 (* srv6vm10 12))) (let ((.def_307 (* srv6vm9 16))) (let ((.def_308 (* srv6vm8 16))) (let ((.def_309 (* srv6vm7 4))) (let ((.def_310 (* srv6vm6 2))) (let ((.def_311 (* srv6vm5 8))) (let ((.def_312 (* srv6vm4 4))) (let ((.def_313 (* srv6vm3 2))) (let ((.def_314 (* srv6vm2 4))) (let ((.def_315 (* srv6vm1 16))) (let ((.def_316 (* srv6vm0 1))) (let ((.def_317 (+ .def_316 .def_315 .def_314 .def_313 .def_312 .def_311 .def_310 .def_309 .def_308 .def_307 .def_306))) (let ((.def_318 (<= .def_317 16))) (let ((.def_319 (* srv5vm10 1300))) (let ((.def_320 (* srv5vm9 3700))) (let ((.def_321 (* srv5vm8 450))) (let ((.def_322 (* srv5vm7 2500))) (let ((.def_323 (* srv5vm6 800))) (let ((.def_324 (* srv5vm5 4000))) (let ((.def_325 (* srv5vm4 7000))) (let ((.def_326 (* srv5vm3 800))) (let ((.def_327 (* srv5vm2 710))) (let ((.def_328 (* srv5vm1 900))) (let ((.def_329 (* srv5vm0 100))) (let ((.def_330 (+ .def_329 .def_328 .def_327 .def_326 .def_325 .def_324 .def_323 .def_322 .def_321 .def_320 .def_319))) (let ((.def_331 (<= .def_330 6000))) (let ((.def_332 (* srv5vm10 12))) (let ((.def_333 (* srv5vm9 16))) (let ((.def_334 (* srv5vm8 16))) (let ((.def_335 (* srv5vm7 4))) (let ((.def_336 (* srv5vm6 2))) (let ((.def_337 (* srv5vm5 8))) (let ((.def_338 (* srv5vm4 4))) (let ((.def_339 (* srv5vm3 2))) (let ((.def_340 (* srv5vm2 4))) (let ((.def_341 (* srv5vm1 16))) (let ((.def_342 (* srv5vm0 1))) (let ((.def_343 (+ .def_342 .def_341 .def_340 .def_339 .def_338 .def_337 .def_336 .def_335 .def_334 .def_333 .def_332))) (let ((.def_344 (<= .def_343 16))) (let ((.def_345 (* srv4vm10 1300))) (let ((.def_346 (* srv4vm9 3700))) (let ((.def_347 (* srv4vm8 450))) (let ((.def_348 (* srv4vm7 2500))) (let ((.def_349 (* srv4vm6 800))) (let ((.def_350 (* srv4vm5 4000))) (let ((.def_351 (* srv4vm4 7000))) (let ((.def_352 (* srv4vm3 800))) (let ((.def_353 (* srv4vm2 710))) (let ((.def_354 (* srv4vm1 900))) (let ((.def_355 (* srv4vm0 100))) (let ((.def_356 (+ .def_355 .def_354 .def_353 .def_352 .def_351 .def_350 .def_349 .def_348 .def_347 .def_346 .def_345))) (let ((.def_357 (<= .def_356 3000))) (let ((.def_358 (* srv4vm10 12))) (let ((.def_359 (* srv4vm9 16))) (let ((.def_360 (* srv4vm8 16))) (let ((.def_361 (* srv4vm7 4))) (let ((.def_362 (* srv4vm6 2))) (let ((.def_363 (* srv4vm5 8))) (let ((.def_364 (* srv4vm4 4))) (let ((.def_365 (* srv4vm3 2))) (let ((.def_366 (* srv4vm2 4))) (let ((.def_367 (* srv4vm1 16))) (let ((.def_368 (* srv4vm0 1))) (let ((.def_369 (+ .def_368 .def_367 .def_366 .def_365 .def_364 .def_363 .def_362 .def_361 .def_360 .def_359 .def_358))) (let ((.def_370 (<= .def_369 8))) (let ((.def_371 (* srv3vm10 1300))) (let ((.def_372 (* srv3vm9 3700))) (let ((.def_373 (* srv3vm8 450))) (let ((.def_374 (* srv3vm7 2500))) (let ((.def_375 (* srv3vm6 800))) (let ((.def_376 (* srv3vm5 4000))) (let ((.def_377 (* srv3vm4 7000))) (let ((.def_378 (* srv3vm3 800))) (let ((.def_379 (* srv3vm2 710))) (let ((.def_380 (* srv3vm1 900))) (let ((.def_381 (* srv3vm0 100))) (let ((.def_382 (+ .def_381 .def_380 .def_379 .def_378 .def_377 .def_376 .def_375 .def_374 .def_373 .def_372 .def_371))) (let ((.def_383 (<= .def_382 8000))) (let ((.def_384 (* srv3vm10 12))) (let ((.def_385 (* srv3vm9 16))) (let ((.def_386 (* srv3vm8 16))) (let ((.def_387 (* srv3vm7 4))) (let ((.def_388 (* srv3vm6 2))) (let ((.def_389 (* srv3vm5 8))) (let ((.def_390 (* srv3vm4 4))) (let ((.def_391 (* srv3vm3 2))) (let ((.def_392 (* srv3vm2 4))) (let ((.def_393 (* srv3vm1 16))) (let ((.def_394 (* srv3vm0 1))) (let ((.def_395 (+ .def_394 .def_393 .def_392 .def_391 .def_390 .def_389 .def_388 .def_387 .def_386 .def_385 .def_384))) (let ((.def_396 (<= .def_395 16))) (let ((.def_397 (* srv2vm10 1300))) (let ((.def_398 (* srv2vm9 3700))) (let ((.def_399 (* srv2vm8 450))) (let ((.def_400 (* srv2vm7 2500))) (let ((.def_401 (* srv2vm6 800))) (let ((.def_402 (* srv2vm5 4000))) (let ((.def_403 (* srv2vm4 7000))) (let ((.def_404 (* srv2vm3 800))) (let ((.def_405 (* srv2vm2 710))) (let ((.def_406 (* srv2vm1 900))) (let ((.def_407 (* srv2vm0 100))) (let ((.def_408 (+ .def_407 .def_406 .def_405 .def_404 .def_403 .def_402 .def_401 .def_400 .def_399 .def_398 .def_397))) (let ((.def_409 (<= .def_408 1000))) (let ((.def_410 (* srv2vm10 12))) (let ((.def_411 (* srv2vm9 16))) (let ((.def_412 (* srv2vm8 16))) (let ((.def_413 (* srv2vm7 4))) (let ((.def_414 (* srv2vm6 2))) (let ((.def_415 (* srv2vm5 8))) (let ((.def_416 (* srv2vm4 4))) (let ((.def_417 (* srv2vm3 2))) (let ((.def_418 (* srv2vm2 4))) (let ((.def_419 (* srv2vm1 16))) (let ((.def_420 (* srv2vm0 1))) (let ((.def_421 (+ .def_420 .def_419 .def_418 .def_417 .def_416 .def_415 .def_414 .def_413 .def_412 .def_411 .def_410))) (let ((.def_422 (<= .def_421 4))) (let ((.def_423 (* srv1vm10 1300))) (let ((.def_424 (* srv1vm9 3700))) (let ((.def_425 (* srv1vm8 450))) (let ((.def_426 (* srv1vm7 2500))) (let ((.def_427 (* srv1vm6 800))) (let ((.def_428 (* srv1vm5 4000))) (let ((.def_429 (* srv1vm4 7000))) (let ((.def_430 (* srv1vm3 800))) (let ((.def_431 (* srv1vm2 710))) (let ((.def_432 (* srv1vm1 900))) (let ((.def_433 (* srv1vm0 100))) (let ((.def_434 (+ .def_433 .def_432 .def_431 .def_430 .def_429 .def_428 .def_427 .def_426 .def_425 .def_424 .def_423))) (let ((.def_435 (<= .def_434 800))) (let ((.def_436 (* srv1vm10 12))) (let ((.def_437 (* srv1vm9 16))) (let ((.def_438 (* srv1vm8 16))) (let ((.def_439 (* srv1vm7 4))) (let ((.def_440 (* srv1vm6 2))) (let ((.def_441 (* srv1vm5 8))) (let ((.def_442 (* srv1vm4 4))) (let ((.def_443 (* srv1vm3 2))) (let ((.def_444 (* srv1vm2 4))) (let ((.def_445 (* srv1vm1 16))) (let ((.def_446 (* srv1vm0 1))) (let ((.def_447 (+ .def_446 .def_445 .def_444 .def_443 .def_442 .def_441 .def_440 .def_439 .def_438 .def_437 .def_436))) (let ((.def_448 (<= .def_447 4))) (let ((.def_449 (* srv0vm10 1300))) (let ((.def_450 (* srv0vm9 3700))) (let ((.def_451 (* srv0vm8 450))) (let ((.def_452 (* srv0vm7 2500))) (let ((.def_453 (* srv0vm6 800))) (let ((.def_454 (* srv0vm5 4000))) (let ((.def_455 (* srv0vm4 7000))) (let ((.def_456 (* srv0vm3 800))) (let ((.def_457 (* srv0vm2 710))) (let ((.def_458 (* srv0vm1 900))) (let ((.def_459 (* srv0vm0 100))) (let ((.def_460 (+ .def_459 .def_458 .def_457 .def_456 .def_455 .def_454 .def_453 .def_452 .def_451 .def_450 .def_449))) (let ((.def_461 (<= .def_460 100))) (let ((.def_462 (* srv0vm10 12))) (let ((.def_463 (* srv0vm9 16))) (let ((.def_464 (* srv0vm8 16))) (let ((.def_465 (* srv0vm7 4))) (let ((.def_466 (* srv0vm6 2))) (let ((.def_467 (* srv0vm5 8))) (let ((.def_468 (* srv0vm4 4))) (let ((.def_469 (* srv0vm3 2))) (let ((.def_470 (* srv0vm2 4))) (let ((.def_471 (* srv0vm1 16))) (let ((.def_472 (* srv0vm0 1))) (let ((.def_473 (+ .def_472 .def_471 .def_470 .def_469 .def_468 .def_467 .def_466 .def_465 .def_464 .def_463 .def_462))) (let ((.def_474 (<= .def_473 2))) (let ((.def_475 (+ srv0vm10 srv1vm10 srv2vm10 srv3vm10 srv4vm10 srv5vm10 srv6vm10 srv7vm10 srv8vm10 srv9vm10 srv10vm10))) (let ((.def_476 (= .def_475 1))) (let ((.def_477 (+ srv0vm9 srv1vm9 srv2vm9 srv3vm9 srv4vm9 srv5vm9 srv6vm9 srv7vm9 srv8vm9 srv9vm9 srv10vm9))) (let ((.def_478 (= .def_477 1))) (let ((.def_479 (+ srv0vm8 srv1vm8 srv2vm8 srv3vm8 srv4vm8 srv5vm8 srv6vm8 srv7vm8 srv8vm8 srv9vm8 srv10vm8))) (let ((.def_480 (= .def_479 1))) (let ((.def_481 (+ srv0vm7 srv1vm7 srv2vm7 srv3vm7 srv4vm7 srv5vm7 srv6vm7 srv7vm7 srv8vm7 srv9vm7 srv10vm7))) (let ((.def_482 (= .def_481 1))) (let ((.def_483 (+ srv0vm6 srv1vm6 srv2vm6 srv3vm6 srv4vm6 srv5vm6 srv6vm6 srv7vm6 srv8vm6 srv9vm6 srv10vm6))) (let ((.def_484 (= .def_483 1))) (let ((.def_485 (+ srv0vm5 srv1vm5 srv2vm5 srv3vm5 srv4vm5 srv5vm5 srv6vm5 srv7vm5 srv8vm5 srv9vm5 srv10vm5))) (let ((.def_486 (= .def_485 1))) (let ((.def_487 (+ srv0vm4 srv1vm4 srv2vm4 srv3vm4 srv4vm4 srv5vm4 srv6vm4 srv7vm4 srv8vm4 srv9vm4 srv10vm4))) (let ((.def_488 (= .def_487 1))) (let ((.def_489 (+ srv0vm3 srv1vm3 srv2vm3 srv3vm3 srv4vm3 srv5vm3 srv6vm3 srv7vm3 srv8vm3 srv9vm3 srv10vm3))) (let ((.def_490 (= .def_489 1))) (let ((.def_491 (+ srv0vm2 srv1vm2 srv2vm2 srv3vm2 srv4vm2 srv5vm2 srv6vm2 srv7vm2 srv8vm2 srv9vm2 srv10vm2))) (let ((.def_492 (= .def_491 1))) (let ((.def_493 (+ srv0vm1 srv1vm1 srv2vm1 srv3vm1 srv4vm1 srv5vm1 srv6vm1 srv7vm1 srv8vm1 srv9vm1 srv10vm1))) (let ((.def_494 (= .def_493 1))) (let ((.def_495 (+ srv0vm0 srv1vm0 srv2vm0 srv3vm0 srv4vm0 srv5vm0 srv6vm0 srv7vm0 srv8vm0 srv9vm0 srv10vm0))) (let ((.def_496 (= .def_495 1))) (let ((.def_497 (<= 0 use_server10))) (let ((.def_498 (<= 0 use_server9))) (let ((.def_499 (<= 0 use_server8))) (let ((.def_500 (<= 0 use_server7))) (let ((.def_501 (<= 0 use_server6))) (let ((.def_502 (<= 0 use_server5))) (let ((.def_503 (<= 0 use_server4))) (let ((.def_504 (<= 0 use_server3))) (let ((.def_505 (<= 0 use_server2))) (let ((.def_506 (<= 0 use_server1))) (let ((.def_507 (<= 0 use_server0))) (let ((.def_508 (<= 0 srv10vm10))) (let ((.def_509 (<= 0 srv10vm9))) (let ((.def_510 (<= 0 srv10vm8))) (let ((.def_511 (<= 0 srv10vm7))) (let ((.def_512 (<= 0 srv10vm6))) (let ((.def_513 (<= 0 srv10vm5))) (let ((.def_514 (<= 0 srv10vm4))) (let ((.def_515 (<= 0 srv10vm3))) (let ((.def_516 (<= 0 srv10vm2))) (let ((.def_517 (<= 0 srv10vm1))) (let ((.def_518 (<= 0 srv10vm0))) (let ((.def_519 (<= 0 srv9vm10))) (let ((.def_520 (<= 0 srv9vm9))) (let ((.def_521 (<= 0 srv9vm8))) (let ((.def_522 (<= 0 srv9vm7))) (let ((.def_523 (<= 0 srv9vm6))) (let ((.def_524 (<= 0 srv9vm5))) (let ((.def_525 (<= 0 srv9vm4))) (let ((.def_526 (<= 0 srv9vm3))) (let ((.def_527 (<= 0 srv9vm2))) (let ((.def_528 (<= 0 srv9vm1))) (let ((.def_529 (<= 0 srv9vm0))) (let ((.def_530 (<= 0 srv8vm10))) (let ((.def_531 (<= 0 srv8vm9))) (let ((.def_532 (<= 0 srv8vm8))) (let ((.def_533 (<= 0 srv8vm7))) (let ((.def_534 (<= 0 srv8vm6))) (let ((.def_535 (<= 0 srv8vm5))) (let ((.def_536 (<= 0 srv8vm4))) (let ((.def_537 (<= 0 srv8vm3))) (let ((.def_538 (<= 0 srv8vm2))) (let ((.def_539 (<= 0 srv8vm1))) (let ((.def_540 (<= 0 srv8vm0))) (let ((.def_541 (<= 0 srv7vm10))) (let ((.def_542 (<= 0 srv7vm9))) (let ((.def_543 (<= 0 srv7vm8))) (let ((.def_544 (<= 0 srv7vm7))) (let ((.def_545 (<= 0 srv7vm6))) (let ((.def_546 (<= 0 srv7vm5))) (let ((.def_547 (<= 0 srv7vm4))) (let ((.def_548 (<= 0 srv7vm3))) (let ((.def_549 (<= 0 srv7vm2))) (let ((.def_550 (<= 0 srv7vm1))) (let ((.def_551 (<= 0 srv7vm0))) (let ((.def_552 (<= 0 srv6vm10))) (let ((.def_553 (<= 0 srv6vm9))) (let ((.def_554 (<= 0 srv6vm8))) (let ((.def_555 (<= 0 srv6vm7))) (let ((.def_556 (<= 0 srv6vm6))) (let ((.def_557 (<= 0 srv6vm5))) (let ((.def_558 (<= 0 srv6vm4))) (let ((.def_559 (<= 0 srv6vm3))) (let ((.def_560 (<= 0 srv6vm2))) (let ((.def_561 (<= 0 srv6vm1))) (let ((.def_562 (<= 0 srv6vm0))) (let ((.def_563 (<= 0 srv5vm10))) (let ((.def_564 (<= 0 srv5vm9))) (let ((.def_565 (<= 0 srv5vm8))) (let ((.def_566 (<= 0 srv5vm7))) (let ((.def_567 (<= 0 srv5vm6))) (let ((.def_568 (<= 0 srv5vm5))) (let ((.def_569 (<= 0 srv5vm4))) (let ((.def_570 (<= 0 srv5vm3))) (let ((.def_571 (<= 0 srv5vm2))) (let ((.def_572 (<= 0 srv5vm1))) (let ((.def_573 (<= 0 srv5vm0))) (let ((.def_574 (<= 0 srv4vm10))) (let ((.def_575 (<= 0 srv4vm9))) (let ((.def_576 (<= 0 srv4vm8))) (let ((.def_577 (<= 0 srv4vm7))) (let ((.def_578 (<= 0 srv4vm6))) (let ((.def_579 (<= 0 srv4vm5))) (let ((.def_580 (<= 0 srv4vm4))) (let ((.def_581 (<= 0 srv4vm3))) (let ((.def_582 (<= 0 srv4vm2))) (let ((.def_583 (<= 0 srv4vm1))) (let ((.def_584 (<= 0 srv4vm0))) (let ((.def_585 (<= 0 srv3vm10))) (let ((.def_586 (<= 0 srv3vm9))) (let ((.def_587 (<= 0 srv3vm8))) (let ((.def_588 (<= 0 srv3vm7))) (let ((.def_589 (<= 0 srv3vm6))) (let ((.def_590 (<= 0 srv3vm5))) (let ((.def_591 (<= 0 srv3vm4))) (let ((.def_592 (<= 0 srv3vm3))) (let ((.def_593 (<= 0 srv3vm2))) (let ((.def_594 (<= 0 srv3vm1))) (let ((.def_595 (<= 0 srv3vm0))) (let ((.def_596 (<= 0 srv2vm10))) (let ((.def_597 (<= 0 srv2vm9))) (let ((.def_598 (<= 0 srv2vm8))) (let ((.def_599 (<= 0 srv2vm7))) (let ((.def_600 (<= 0 srv2vm6))) (let ((.def_601 (<= 0 srv2vm5))) (let ((.def_602 (<= 0 srv2vm4))) (let ((.def_603 (<= 0 srv2vm3))) (let ((.def_604 (<= 0 srv2vm2))) (let ((.def_605 (<= 0 srv2vm1))) (let ((.def_606 (<= 0 srv2vm0))) (let ((.def_607 (<= 0 srv1vm10))) (let ((.def_608 (<= 0 srv1vm9))) (let ((.def_609 (<= 0 srv1vm8))) (let ((.def_610 (<= 0 srv1vm7))) (let ((.def_611 (<= 0 srv1vm6))) (let ((.def_612 (<= 0 srv1vm5))) (let ((.def_613 (<= 0 srv1vm4))) (let ((.def_614 (<= 0 srv1vm3))) (let ((.def_615 (<= 0 srv1vm2))) (let ((.def_616 (<= 0 srv1vm1))) (let ((.def_617 (<= 0 srv1vm0))) (let ((.def_618 (<= 0 srv0vm10))) (let ((.def_619 (<= 0 srv0vm9))) (let ((.def_620 (<= 0 srv0vm8))) (let ((.def_621 (<= 0 srv0vm7))) (let ((.def_622 (<= 0 srv0vm6))) (let ((.def_623 (<= 0 srv0vm5))) (let ((.def_624 (<= 0 srv0vm4))) (let ((.def_625 (<= 0 srv0vm3))) (let ((.def_626 (<= 0 srv0vm2))) (let ((.def_627 (<= 0 srv0vm1))) (let ((.def_628 (<= 0 srv0vm0))) (let ((.def_629 (and .def_628 .def_627 .def_626 .def_625 .def_624 .def_623 .def_622 .def_621 .def_620 .def_619 .def_618 .def_617 .def_616 .def_615 .def_614 .def_613 .def_612 .def_611 .def_610 .def_609 .def_608 .def_607 .def_606 .def_605 .def_604 .def_603 .def_602 .def_601 .def_600 .def_599 .def_598 .def_597 .def_596 .def_595 .def_594 .def_593 .def_592 .def_591 .def_590 .def_589 .def_588 .def_587 .def_586 .def_585 .def_584 .def_583 .def_582 .def_581 .def_580 .def_579 .def_578 .def_577 .def_576 .def_575 .def_574 .def_573 .def_572 .def_571 .def_570 .def_569 .def_568 .def_567 .def_566 .def_565 .def_564 .def_563 .def_562 .def_561 .def_560 .def_559 .def_558 .def_557 .def_556 .def_555 .def_554 .def_553 .def_552 .def_551 .def_550 .def_549 .def_548 .def_547 .def_546 .def_545 .def_544 .def_543 .def_542 .def_541 .def_540 .def_539 .def_538 .def_537 .def_536 .def_535 .def_534 .def_533 .def_532 .def_531 .def_530 .def_529 .def_528 .def_527 .def_526 .def_525 .def_524 .def_523 .def_522 .def_521 .def_520 .def_519 .def_518 .def_517 .def_516 .def_515 .def_514 .def_513 .def_512 .def_511 .def_510 .def_509 .def_508 .def_507 .def_506 .def_505 .def_504 .def_503 .def_502 .def_501 .def_500 .def_499 .def_498 .def_497 .def_496 .def_494 .def_492 .def_490 .def_488 .def_486 .def_484 .def_482 .def_480 .def_478 .def_476 .def_474 .def_461 .def_448 .def_435 .def_422 .def_409 .def_396 .def_383 .def_370 .def_357 .def_344 .def_331 .def_318 .def_305 .def_292 .def_279 .def_266 .def_253 .def_240 .def_227 .def_214 .def_201 .def_188 .def_186 .def_171 .def_169 .def_154 .def_152 .def_137 .def_135 .def_120 .def_118 .def_103 .def_101 .def_86 .def_84 .def_69 .def_67 .def_52 .def_50 .def_35 .def_33 .def_18 .def_16 .def_1))) .def_629)))))))))))))))))))))))))))))))))))))))))))))))))))))))))))))))))))))))))))))))))))))))))))))))))))))))))))))))))))))))))))))))))))))))))))))))))))))))))))))))))))))))))))))))))))))))))))))))))))))))))))))))))))))))))))))))))))))))))))))))))))))))))))))))))))))))))))))))))))))))))))))))))))))))))))))))))))))))))))))))))))))))))))))))))))))))))))))))))))))))))))))))))))))))))))))))))))))))))))))))))))))))))))))))))))))))))))))))))))))))))))))))))))))))))))))))))))))))))))))))))))))))))))))))))))))))))))))))))))))))))))))))))))))))))))))))))))))))))))))))))))))))))))))))))))))))))))))))))))))))))))))))))))))))))))))))))))))))
(minimize n_servers)
(check-sat)
(get-objectives)
(get-model)
